800
64344.0 146491.8
4986.0 159922.3
3372.0 159964.5
1220.0 159995.3
1122.0 159996.1
1031.0 159996.7
986.0 159997.0
960.0 159997.1
956.0 159997.1
953.0 159997.2
945.0 159997.2
941.0 159997.2
935.0 159997.3
933.0 159997.3
926.0 159997.3
920.0 159997.4
915.0 159997.4
912.0 159997.4
908.0 159997.4
905.0 159997.4
904.0 159997.4
890.0 159997.5
886.0 159997.5
884.0 159997.6
878.0 159997.6
876.0 159997.6
872.0 159997.6
868.0 159997.6
856.0 159997.7
852.0 159997.7
849.0 159997.7
843.0 159997.8
841.0 159997.8
832.0 159997.8
825.0 159997.9
821.0 159997.9
815.0 159997.9
813.0 159997.9
807.0 159998.0
800.0 159998.0
795.0 159998.0
794.0 159998.0
789.0 159998.1
781.0 159998.1
778.0 159998.1
775.0 159998.1
772.0 159998.1
760.0 159998.2
757.0 159998.2
751.0 159998.2
745.0 159998.3
744.0 159998.3
740.0 159998.3
730.0 159998.3
727.0 159998.3
724.0 159998.4
721.0 159998.4
719.0 159998.4
714.0 159998.4
707.0 159998.4
698.0 159998.5
694.0 159998.5
692.0 159998.5
683.0 159998.5
682.0 159998.5
676.0 159998.6
670.0 159998.6
662.0 159998.6
661.0 159998.6
653.0 159998.7
648.0 159998.7
642.0 159998.7
635.0 159998.7
634.0 159998.7
630.0 159998.8
629.0 159998.8
618.0 159998.8
612.0 159998.8
607.0 159998.8
604.0 159998.9
602.0 159998.9
590.0 159998.9
585.0 159998.9
582.0 159998.9
575.0 159999.0
574.0 159999.0
572.0 159999.0
561.0 159999.0
560.0 159999.0
554.0 159999.0
545.0 159999.1
542.0 159999.1
536.0 159999.1
535.0 159999.1
534.0 159999.1
523.0 159999.1
519.0 159999.2
513.0 159999.2
509.0 159999.2
504.0 159999.2
500.0 159999.2
491.0 159999.2
489.0 159999.3
481.0 159999.3
475.0 159999.3
471.0 159999.3
466.0 159999.3
464.0 159999.3
461.0 159999.3
452.0 159999.4
448.0 159999.4
446.0 159999.4
435.0 159999.4
430.0 159999.4
426.0 159999.4
425.0 159999.4
424.0 159999.4
418.0 159999.5
415.0 159999.5
404.0 159999.5
399.0 159999.5
398.0 159999.5
389.0 159999.5
381.0 159999.5
380.0 159999.5
371.0 159999.6
370.0 159999.6
363.0 159999.6
358.0 159999.6
354.0 159999.6
345.0 159999.6
344.0 159999.6
343.0 159999.6
333.0 159999.7
330.0 159999.7
327.0 159999.7
324.0 159999.7
314.0 159999.7
311.0 159999.7
304.0 159999.7
302.0 159999.7
296.0 159999.7
290.0 159999.7
287.0 159999.7
279.0 159999.8
273.0 159999.8
268.0 159999.8
264.0 159999.8
258.0 159999.8
250.0 159999.8
245.0 159999.8
244.0 159999.8
241.0 159999.8
235.0 159999.8
225.0 159999.8
221.0 159999.8
215.0 159999.9
210.0 159999.9
206.0 159999.9
201.0 159999.9
197.0 159999.9
196.0 159999.9
195.0 159999.9
189.0 159999.9
186.0 159999.9
183.0 159999.9
165.0 159999.9
160.0 159999.9
157.0 159999.9
154.0 159999.9
148.0 159999.9
143.0 159999.9
138.0 159999.9
136.0 159999.9
126.0 160000.0
121.0 160000.0
117.0 160000.0
113.0 160000.0
112.0 160000.0
100.0 160000.0
95.0 160000.0
94.0 160000.0
88.0 160000.0
85.0 160000.0
79.0 160000.0
78.0 160000.0
77.0 160000.0
71.0 160000.0
70.0 160000.0
54.0 160000.0
46.0 160000.0
45.0 160000.0
37.0 160000.0
35.0 160000.0
26.0 160000.0
23.0 160000.0
15.0 160000.0
14.0 160000.0
9.0 160000.0
4.0 160000.0
-4.0 160000.0
-9.0 160000.0
-13.0 160000.0
-20.0 160000.0
-21.0 160000.0
-25.0 160000.0
-36.0 160000.0
-37.0 160000.0
-42.0 160000.0
-50.0 160000.0
-52.0 160000.0
-56.0 160000.0
-68.0 160000.0
-73.0 160000.0
-78.0 160000.0
-79.0 160000.0
-80.0 160000.0
-86.0 160000.0
-92.0 160000.0
-95.0 160000.0
-103.0 160000.0
-108.0 160000.0
-111.0 160000.0
-120.0 160000.0
-121.0 160000.0
-131.0 159999.9
-132.0 159999.9
-139.0 159999.9
-144.0 159999.9
-146.0 159999.9
-151.0 159999.9
-155.0 159999.9
-161.0 159999.9
-166.0 159999.9
-170.0 159999.9
-175.0 159999.9
-185.0 159999.9
-186.0 159999.9
-199.0 159999.9
-206.0 159999.9
-209.0 159999.9
-215.0 159999.9
-217.0 159999.9
-219.0 159999.9
-227.0 159999.8
-229.0 159999.8
-237.0 159999.8
-238.0 159999.8
-246.0 159999.8
-250.0 159999.8
-255.0 159999.8
-265.0 159999.8
-266.0 159999.8
-273.0 159999.8
-274.0 159999.8
-283.0 159999.7
-286.0 159999.7
-292.0 159999.7
-294.0 159999.7
-295.0 159999.7
-310.0 159999.7
-313.0 159999.7
-315.0 159999.7
-318.0 159999.7
-322.0 159999.7
-325.0 159999.7
-334.0 159999.7
-337.0 159999.6
-345.0 159999.6
-349.0 159999.6
-353.0 159999.6
-359.0 159999.6
-360.0 159999.6
-370.0 159999.6
-375.0 159999.6
-380.0 159999.5
-386.0 159999.5
-392.0 159999.5
-393.0 159999.5
-400.0 159999.5
-402.0 159999.5
-405.0 159999.5
-411.0 159999.5
-416.0 159999.5
-426.0 159999.4
-429.0 159999.4
-434.0 159999.4
-435.0 159999.4
-448.0 159999.4
-450.0 159999.4
-453.0 159999.4
-462.0 159999.3
-469.0 159999.3
-471.0 159999.3
-475.0 159999.3
-477.0 159999.3
-483.0 159999.3
-485.0 159999.3
-490.0 159999.2
-498.0 159999.2
-511.0 159999.2
-515.0 159999.2
-517.0 159999.2
-519.0 159999.2
-528.0 159999.1
-529.0 159999.1
-535.0 159999.1
-539.0 159999.1
-540.0 159999.1
-546.0 159999.1
-551.0 159999.1
-555.0 159999.0
-566.0 159999.0
-568.0 159999.0
-578.0 159999.0
-584.0 159998.9
-586.0 159998.9
-587.0 159998.9
-590.0 159998.9
-597.0 159998.9
-601.0 159998.9
-616.0 159998.8
-617.0 159998.8
-619.0 159998.8
-627.0 159998.8
-636.0 159998.7
-640.0 159998.7
-641.0 159998.7
-646.0 159998.7
-652.0 159998.7
-655.0 159998.7
-656.0 159998.7
-663.0 159998.6
-674.0 159998.6
-677.0 159998.6
-678.0 159998.6
-684.0 159998.5
-686.0 159998.5
-693.0 159998.5
-698.0 159998.5
-705.0 159998.4
-710.0 159998.4
-717.0 159998.4
-718.0 159998.4
-723.0 159998.4
-731.0 159998.3
-735.0 159998.3
-736.0 159998.3
-741.0 159998.3
-750.0 159998.2
-755.0 159998.2
-756.0 159998.2
-766.0 159998.2
-772.0 159998.1
-774.0 159998.1
-778.0 159998.1
-787.0 159998.1
-788.0 159998.1
-796.0 159998.0
-797.0 159998.0
-811.0 159997.9
-812.0 159997.9
-824.0 159997.9
-826.0 159997.9
-828.0 159997.9
-829.0 159997.9
-832.0 159997.8
-839.0 159997.8
-841.0 159997.8
-846.0 159997.8
-850.0 159997.7
-856.0 159997.7
-862.0 159997.7
-867.0 159997.7
-876.0 159997.6
-877.0 159997.6
-890.0 159997.5
-896.0 159997.5
-903.0 159997.5
-905.0 159997.4
-908.0 159997.4
-910.0 159997.4
-914.0 159997.4
-922.0 159997.3
-925.0 159997.3
-931.0 159997.3
-936.0 159997.3
-938.0 159997.3
-942.0 159997.2
-950.0 159997.2
-955.0 159997.1
-960.0 159997.1
-963.0 159997.1
-967.0 159997.1
-1082.0 159996.3
-1729.0 159990.7
-13930.0 159392.5
-19297.0 158832.1
-22277.0 158441.6
-30854.0 156996.9
-115505.0 -110718.5
-40851.0 -154697.1
-40132.0 -154885.2
-26996.0 -157706.1
-4599.0 -159933.9
-1779.0 -159990.1
-992.0 -159996.9
-973.0 -159997.0
-957.0 -159997.1
-955.0 -159997.1
-947.0 -159997.2
-941.0 -159997.2
-938.0 -159997.3
-931.0 -159997.3
-929.0 -159997.3
-923.0 -159997.3
-921.0 -159997.3
-911.0 -159997.4
-909.0 -159997.4
-907.0 -159997.4
-903.0 -159997.5
-900.0 -159997.5
-892.0 -159997.5
-886.0 -159997.5
-884.0 -159997.6
-881.0 -159997.6
-879.0 -159997.6
-866.0 -159997.7
-864.0 -159997.7
-852.0 -159997.7
-849.0 -159997.7
-842.0 -159997.8
-838.0 -159997.8
-835.0 -159997.8
-827.0 -159997.9
-824.0 -159997.9
-820.0 -159997.9
-812.0 -159997.9
-808.0 -159998.0
-807.0 -159998.0
-801.0 -159998.0
-799.0 -159998.0
-796.0 -159998.0
-783.0 -159998.1
-780.0 -159998.1
-772.0 -159998.1
-767.0 -159998.2
-766.0 -159998.2
-759.0 -159998.2
-750.0 -159998.2
-747.0 -159998.3
-741.0 -159998.3
-737.0 -159998.3
-734.0 -159998.3
-732.0 -159998.3
-722.0 -159998.4
-721.0 -159998.4
-713.0 -159998.4
-707.0 -159998.4
-705.0 -159998.4
-704.0 -159998.5
-699.0 -159998.5
-690.0 -159998.5
-689.0 -159998.5
-675.0 -159998.6
-670.0 -159998.6
-667.0 -159998.6
-665.0 -159998.6
-661.0 -159998.6
-653.0 -159998.7
-650.0 -159998.7
-648.0 -159998.7
-645.0 -159998.7
-637.0 -159998.7
-630.0 -159998.8
-623.0 -159998.8
-615.0 -159998.8
-611.0 -159998.8
-607.0 -159998.8
-606.0 -159998.9
-598.0 -159998.9
-590.0 -159998.9
-589.0 -159998.9
-588.0 -159998.9
-578.0 -159999.0
-573.0 -159999.0
-572.0 -159999.0
-568.0 -159999.0
-566.0 -159999.0
-557.0 -159999.0
-548.0 -159999.1
-545.0 -159999.1
-540.0 -159999.1
-535.0 -159999.1
-530.0 -159999.1
-525.0 -159999.1
-524.0 -159999.1
-521.0 -159999.2
-506.0 -159999.2
-503.0 -159999.2
-496.0 -159999.2
-495.0 -159999.2
-487.0 -159999.3
-485.0 -159999.3
-478.0 -159999.3
-474.0 -159999.3
-471.0 -159999.3
-467.0 -159999.3
-463.0 -159999.3
-450.0 -159999.4
-449.0 -159999.4
-444.0 -159999.4
-439.0 -159999.4
-431.0 -159999.4
-427.0 -159999.4
-420.0 -159999.4
-419.0 -159999.5
-414.0 -159999.5
-413.0 -159999.5
-405.0 -159999.5
-404.0 -159999.5
-403.0 -159999.5
-394.0 -159999.5
-392.0 -159999.5
-391.0 -159999.5
-383.0 -159999.5
-379.0 -159999.6
-372.0 -159999.6
-369.0 -159999.6
-357.0 -159999.6
-346.0 -159999.6
-343.0 -159999.6
-335.0 -159999.6
-333.0 -159999.7
-327.0 -159999.7
-325.0 -159999.7
-323.0 -159999.7
-318.0 -159999.7
-314.0 -159999.7
-300.0 -159999.7
-298.0 -159999.7
-295.0 -159999.7
-294.0 -159999.7
-282.0 -159999.8
-281.0 -159999.8
-276.0 -159999.8
-265.0 -159999.8
-261.0 -159999.8
-255.0 -159999.8
-252.0 -159999.8
-251.0 -159999.8
-241.0 -159999.8
-237.0 -159999.8
-236.0 -159999.8
-234.0 -159999.8
-223.0 -159999.8
-216.0 -159999.9
-210.0 -159999.9
-205.0 -159999.9
-202.0 -159999.9
-199.0 -159999.9
-191.0 -159999.9
-190.0 -159999.9
-181.0 -159999.9
-175.0 -159999.9
-172.0 -159999.9
-168.0 -159999.9
-164.0 -159999.9
-155.0 -159999.9
-154.0 -159999.9
-153.0 -159999.9
-146.0 -159999.9
-143.0 -159999.9
-142.0 -159999.9
-127.0 -159999.9
-122.0 -160000.0
-118.0 -160000.0
-110.0 -160000.0
-108.0 -160000.0
-107.0 -160000.0
-99.0 -160000.0
-96.0 -160000.0
-86.0 -160000.0
-84.0 -160000.0
-77.0 -160000.0
-70.0 -160000.0
-69.0 -160000.0
-62.0 -160000.0
-59.0 -160000.0
-57.0 -160000.0
-49.0 -160000.0
-43.0 -160000.0
-42.0 -160000.0
-31.0 -160000.0
-28.0 -160000.0
-26.0 -160000.0
-23.0 -160000.0
-21.0 -160000.0
-17.0 -160000.0
-5.0 -160000.0
1.0 -160000.0
7.0 -160000.0
21.0 -160000.0
23.0 -160000.0
25.0 -160000.0
30.0 -160000.0
32.0 -160000.0
35.0 -160000.0
48.0 -160000.0
51.0 -160000.0
52.0 -160000.0
55.0 -160000.0
66.0 -160000.0
69.0 -160000.0
75.0 -160000.0
85.0 -160000.0
92.0 -160000.0
95.0 -160000.0
98.0 -160000.0
101.0 -160000.0
104.0 -160000.0
108.0 -160000.0
112.0 -160000.0
123.0 -160000.0
124.0 -160000.0
125.0 -160000.0
140.0 -159999.9
144.0 -159999.9
146.0 -159999.9
147.0 -159999.9
150.0 -159999.9
156.0 -159999.9
167.0 -159999.9
170.0 -159999.9
174.0 -159999.9
178.0 -159999.9
186.0 -159999.9
195.0 -159999.9
197.0 -159999.9
199.0 -159999.9
206.0 -159999.9
211.0 -159999.9
215.0 -159999.9
219.0 -159999.9
221.0 -159999.8
231.0 -159999.8
239.0 -159999.8
243.0 -159999.8
247.0 -159999.8
249.0 -159999.8
254.0 -159999.8
257.0 -159999.8
264.0 -159999.8
269.0 -159999.8
275.0 -159999.8
277.0 -159999.8
286.0 -159999.7
287.0 -159999.7
293.0 -159999.7
298.0 -159999.7
303.0 -159999.7
305.0 -159999.7
316.0 -159999.7
317.0 -159999.7
323.0 -159999.7
328.0 -159999.7
339.0 -159999.6
340.0 -159999.6
341.0 -159999.6
348.0 -159999.6
351.0 -159999.6
360.0 -159999.6
362.0 -159999.6
367.0 -159999.6
371.0 -159999.6
381.0 -159999.5
382.0 -159999.5
392.0 -159999.5
397.0 -159999.5
401.0 -159999.5
406.0 -159999.5
414.0 -159999.5
418.0 -159999.5
429.0 -159999.4
430.0 -159999.4
432.0 -159999.4
434.0 -159999.4
437.0 -159999.4
451.0 -159999.4
453.0 -159999.4
455.0 -159999.4
456.0 -159999.4
461.0 -159999.3
473.0 -159999.3
477.0 -159999.3
484.0 -159999.3
485.0 -159999.3
486.0 -159999.3
490.0 -159999.2
499.0 -159999.2
508.0 -159999.2
514.0 -159999.2
517.0 -159999.2
524.0 -159999.1
527.0 -159999.1
531.0 -159999.1
534.0 -159999.1
539.0 -159999.1
541.0 -159999.1
545.0 -159999.1
554.0 -159999.0
560.0 -159999.0
562.0 -159999.0
566.0 -159999.0
576.0 -159999.0
577.0 -159999.0
584.0 -159998.9
588.0 -159998.9
598.0 -159998.9
599.0 -159998.9
602.0 -159998.9
605.0 -159998.9
610.0 -159998.8
616.0 -159998.8
626.0 -159998.8
629.0 -159998.8
631.0 -159998.8
641.0 -159998.7
646.0 -159998.7
649.0 -159998.7
656.0 -159998.7
658.0 -159998.6
665.0 -159998.6
671.0 -159998.6
672.0 -159998.6
675.0 -159998.6
683.0 -159998.5
686.0 -159998.5
696.0 -159998.5
699.0 -159998.5
701.0 -159998.5
711.0 -159998.4
712.0 -159998.4
715.0 -159998.4
725.0 -159998.4
726.0 -159998.4
731.0 -159998.3
738.0 -159998.3
745.0 -159998.3
748.0 -159998.3
757.0 -159998.2
760.0 -159998.2
762.0 -159998.2
767.0 -159998.2
772.0 -159998.1
778.0 -159998.1
783.0 -159998.1
785.0 -159998.1
795.0 -159998.0
797.0 -159998.0
809.0 -159998.0
813.0 -159997.9
816.0 -159997.9
817.0 -159997.9
825.0 -159997.9
827.0 -159997.9
833.0 -159997.8
836.0 -159997.8
842.0 -159997.8
845.0 -159997.8
856.0 -159997.7
857.0 -159997.7
867.0 -159997.7
876.0 -159997.6
878.0 -159997.6
880.0 -159997.6
883.0 -159997.6
888.0 -159997.5
901.0 -159997.5
902.0 -159997.5
903.0 -159997.5
905.0 -159997.4
911.0 -159997.4
917.0 -159997.4
925.0 -159997.3
929.0 -159997.3
931.0 -159997.3
938.0 -159997.3
946.0 -159997.2
948.0 -159997.2
956.0 -159997.1
980.0 -159997.0
995.0 -159996.9
1002.0 -159996.9
1008.0 -159996.8
1595.0 -159992.0
13862.0 -159398.4
20109.0 -158731.3
25176.0 -158006.9
40875.0 -154690.8
